c File: flat200_3_0.col
c
c SOURCE: Joseph Culberson (joe@cs.ualberta.ca)
c DESCRIPTION: Quasi-random coloring problem
c              generated with flatness = 0
c                             probability = 0.036
c                             known coloring = 3
c                             random seed = 1020
c              Creation Date:  Wed Feb 24 10:39:40 1999
c Maximum degree = 8 Minimum degree = 0
c COLOR VERIFICATION: Using the permuted order
c under simple greedy yields the specified
c coloring number
c Color = 3 specified partitions = 3
c p edge 200 479
c cnf created by edge2cnf
p cnf 600 2237
-1 -2 0
-1 -3 0
-2 -3 0
1 2 3 0
-4 -5 0
-4 -6 0
-5 -6 0
4 5 6 0
-7 -8 0
-7 -9 0
-8 -9 0
7 8 9 0
-10 -11 0
-10 -12 0
-11 -12 0
10 11 12 0
-13 -14 0
-13 -15 0
-14 -15 0
13 14 15 0
-16 -17 0
-16 -18 0
-17 -18 0
16 17 18 0
-19 -20 0
-19 -21 0
-20 -21 0
19 20 21 0
-22 -23 0
-22 -24 0
-23 -24 0
22 23 24 0
-25 -26 0
-25 -27 0
-26 -27 0
25 26 27 0
-28 -29 0
-28 -30 0
-29 -30 0
28 29 30 0
-31 -32 0
-31 -33 0
-32 -33 0
31 32 33 0
-34 -35 0
-34 -36 0
-35 -36 0
34 35 36 0
-37 -38 0
-37 -39 0
-38 -39 0
37 38 39 0
-40 -41 0
-40 -42 0
-41 -42 0
40 41 42 0
-43 -44 0
-43 -45 0
-44 -45 0
43 44 45 0
-46 -47 0
-46 -48 0
-47 -48 0
46 47 48 0
-49 -50 0
-49 -51 0
-50 -51 0
49 50 51 0
-52 -53 0
-52 -54 0
-53 -54 0
52 53 54 0
-55 -56 0
-55 -57 0
-56 -57 0
55 56 57 0
-58 -59 0
-58 -60 0
-59 -60 0
58 59 60 0
-61 -62 0
-61 -63 0
-62 -63 0
61 62 63 0
-64 -65 0
-64 -66 0
-65 -66 0
64 65 66 0
-67 -68 0
-67 -69 0
-68 -69 0
67 68 69 0
-70 -71 0
-70 -72 0
-71 -72 0
70 71 72 0
-73 -74 0
-73 -75 0
-74 -75 0
73 74 75 0
-76 -77 0
-76 -78 0
-77 -78 0
76 77 78 0
-79 -80 0
-79 -81 0
-80 -81 0
79 80 81 0
-82 -83 0
-82 -84 0
-83 -84 0
82 83 84 0
-85 -86 0
-85 -87 0
-86 -87 0
85 86 87 0
-88 -89 0
-88 -90 0
-89 -90 0
88 89 90 0
-91 -92 0
-91 -93 0
-92 -93 0
91 92 93 0
-94 -95 0
-94 -96 0
-95 -96 0
94 95 96 0
-97 -98 0
-97 -99 0
-98 -99 0
97 98 99 0
-100 -101 0
-100 -102 0
-101 -102 0
100 101 102 0
-103 -104 0
-103 -105 0
-104 -105 0
103 104 105 0
-106 -107 0
-106 -108 0
-107 -108 0
106 107 108 0
-109 -110 0
-109 -111 0
-110 -111 0
109 110 111 0
-112 -113 0
-112 -114 0
-113 -114 0
112 113 114 0
-115 -116 0
-115 -117 0
-116 -117 0
115 116 117 0
-118 -119 0
-118 -120 0
-119 -120 0
118 119 120 0
-121 -122 0
-121 -123 0
-122 -123 0
121 122 123 0
-124 -125 0
-124 -126 0
-125 -126 0
124 125 126 0
-127 -128 0
-127 -129 0
-128 -129 0
127 128 129 0
-130 -131 0
-130 -132 0
-131 -132 0
130 131 132 0
-133 -134 0
-133 -135 0
-134 -135 0
133 134 135 0
-136 -137 0
-136 -138 0
-137 -138 0
136 137 138 0
-139 -140 0
-139 -141 0
-140 -141 0
139 140 141 0
-142 -143 0
-142 -144 0
-143 -144 0
142 143 144 0
-145 -146 0
-145 -147 0
-146 -147 0
145 146 147 0
-148 -149 0
-148 -150 0
-149 -150 0
148 149 150 0
-151 -152 0
-151 -153 0
-152 -153 0
151 152 153 0
-154 -155 0
-154 -156 0
-155 -156 0
154 155 156 0
-157 -158 0
-157 -159 0
-158 -159 0
157 158 159 0
-160 -161 0
-160 -162 0
-161 -162 0
160 161 162 0
-163 -164 0
-163 -165 0
-164 -165 0
163 164 165 0
-166 -167 0
-166 -168 0
-167 -168 0
166 167 168 0
-169 -170 0
-169 -171 0
-170 -171 0
169 170 171 0
-172 -173 0
-172 -174 0
-173 -174 0
172 173 174 0
-175 -176 0
-175 -177 0
-176 -177 0
175 176 177 0
-178 -179 0
-178 -180 0
-179 -180 0
178 179 180 0
-181 -182 0
-181 -183 0
-182 -183 0
181 182 183 0
-184 -185 0
-184 -186 0
-185 -186 0
184 185 186 0
-187 -188 0
-187 -189 0
-188 -189 0
187 188 189 0
-190 -191 0
-190 -192 0
-191 -192 0
190 191 192 0
-193 -194 0
-193 -195 0
-194 -195 0
193 194 195 0
-196 -197 0
-196 -198 0
-197 -198 0
196 197 198 0
-199 -200 0
-199 -201 0
-200 -201 0
199 200 201 0
-202 -203 0
-202 -204 0
-203 -204 0
202 203 204 0
-205 -206 0
-205 -207 0
-206 -207 0
205 206 207 0
-208 -209 0
-208 -210 0
-209 -210 0
208 209 210 0
-211 -212 0
-211 -213 0
-212 -213 0
211 212 213 0
-214 -215 0
-214 -216 0
-215 -216 0
214 215 216 0
-217 -218 0
-217 -219 0
-218 -219 0
217 218 219 0
-220 -221 0
-220 -222 0
-221 -222 0
220 221 222 0
-223 -224 0
-223 -225 0
-224 -225 0
223 224 225 0
-226 -227 0
-226 -228 0
-227 -228 0
226 227 228 0
-229 -230 0
-229 -231 0
-230 -231 0
229 230 231 0
-232 -233 0
-232 -234 0
-233 -234 0
232 233 234 0
-235 -236 0
-235 -237 0
-236 -237 0
235 236 237 0
-238 -239 0
-238 -240 0
-239 -240 0
238 239 240 0
-241 -242 0
-241 -243 0
-242 -243 0
241 242 243 0
-244 -245 0
-244 -246 0
-245 -246 0
244 245 246 0
-247 -248 0
-247 -249 0
-248 -249 0
247 248 249 0
-250 -251 0
-250 -252 0
-251 -252 0
250 251 252 0
-253 -254 0
-253 -255 0
-254 -255 0
253 254 255 0
-256 -257 0
-256 -258 0
-257 -258 0
256 257 258 0
-259 -260 0
-259 -261 0
-260 -261 0
259 260 261 0
-262 -263 0
-262 -264 0
-263 -264 0
262 263 264 0
-265 -266 0
-265 -267 0
-266 -267 0
265 266 267 0
-268 -269 0
-268 -270 0
-269 -270 0
268 269 270 0
-271 -272 0
-271 -273 0
-272 -273 0
271 272 273 0
-274 -275 0
-274 -276 0
-275 -276 0
274 275 276 0
-277 -278 0
-277 -279 0
-278 -279 0
277 278 279 0
-280 -281 0
-280 -282 0
-281 -282 0
280 281 282 0
-283 -284 0
-283 -285 0
-284 -285 0
283 284 285 0
-286 -287 0
-286 -288 0
-287 -288 0
286 287 288 0
-289 -290 0
-289 -291 0
-290 -291 0
289 290 291 0
-292 -293 0
-292 -294 0
-293 -294 0
292 293 294 0
-295 -296 0
-295 -297 0
-296 -297 0
295 296 297 0
-298 -299 0
-298 -300 0
-299 -300 0
298 299 300 0
-301 -302 0
-301 -303 0
-302 -303 0
301 302 303 0
-304 -305 0
-304 -306 0
-305 -306 0
304 305 306 0
-307 -308 0
-307 -309 0
-308 -309 0
307 308 309 0
-310 -311 0
-310 -312 0
-311 -312 0
310 311 312 0
-313 -314 0
-313 -315 0
-314 -315 0
313 314 315 0
-316 -317 0
-316 -318 0
-317 -318 0
316 317 318 0
-319 -320 0
-319 -321 0
-320 -321 0
319 320 321 0
-322 -323 0
-322 -324 0
-323 -324 0
322 323 324 0
-325 -326 0
-325 -327 0
-326 -327 0
325 326 327 0
-328 -329 0
-328 -330 0
-329 -330 0
328 329 330 0
-331 -332 0
-331 -333 0
-332 -333 0
331 332 333 0
-334 -335 0
-334 -336 0
-335 -336 0
334 335 336 0
-337 -338 0
-337 -339 0
-338 -339 0
337 338 339 0
-340 -341 0
-340 -342 0
-341 -342 0
340 341 342 0
-343 -344 0
-343 -345 0
-344 -345 0
343 344 345 0
-346 -347 0
-346 -348 0
-347 -348 0
346 347 348 0
-349 -350 0
-349 -351 0
-350 -351 0
349 350 351 0
-352 -353 0
-352 -354 0
-353 -354 0
352 353 354 0
-355 -356 0
-355 -357 0
-356 -357 0
355 356 357 0
-358 -359 0
-358 -360 0
-359 -360 0
358 359 360 0
-361 -362 0
-361 -363 0
-362 -363 0
361 362 363 0
-364 -365 0
-364 -366 0
-365 -366 0
364 365 366 0
-367 -368 0
-367 -369 0
-368 -369 0
367 368 369 0
-370 -371 0
-370 -372 0
-371 -372 0
370 371 372 0
-373 -374 0
-373 -375 0
-374 -375 0
373 374 375 0
-376 -377 0
-376 -378 0
-377 -378 0
376 377 378 0
-379 -380 0
-379 -381 0
-380 -381 0
379 380 381 0
-382 -383 0
-382 -384 0
-383 -384 0
382 383 384 0
-385 -386 0
-385 -387 0
-386 -387 0
385 386 387 0
-388 -389 0
-388 -390 0
-389 -390 0
388 389 390 0
-391 -392 0
-391 -393 0
-392 -393 0
391 392 393 0
-394 -395 0
-394 -396 0
-395 -396 0
394 395 396 0
-397 -398 0
-397 -399 0
-398 -399 0
397 398 399 0
-400 -401 0
-400 -402 0
-401 -402 0
400 401 402 0
-403 -404 0
-403 -405 0
-404 -405 0
403 404 405 0
-406 -407 0
-406 -408 0
-407 -408 0
406 407 408 0
-409 -410 0
-409 -411 0
-410 -411 0
409 410 411 0
-412 -413 0
-412 -414 0
-413 -414 0
412 413 414 0
-415 -416 0
-415 -417 0
-416 -417 0
415 416 417 0
-418 -419 0
-418 -420 0
-419 -420 0
418 419 420 0
-421 -422 0
-421 -423 0
-422 -423 0
421 422 423 0
-424 -425 0
-424 -426 0
-425 -426 0
424 425 426 0
-427 -428 0
-427 -429 0
-428 -429 0
427 428 429 0
-430 -431 0
-430 -432 0
-431 -432 0
430 431 432 0
-433 -434 0
-433 -435 0
-434 -435 0
433 434 435 0
-436 -437 0
-436 -438 0
-437 -438 0
436 437 438 0
-439 -440 0
-439 -441 0
-440 -441 0
439 440 441 0
-442 -443 0
-442 -444 0
-443 -444 0
442 443 444 0
-445 -446 0
-445 -447 0
-446 -447 0
445 446 447 0
-448 -449 0
-448 -450 0
-449 -450 0
448 449 450 0
-451 -452 0
-451 -453 0
-452 -453 0
451 452 453 0
-454 -455 0
-454 -456 0
-455 -456 0
454 455 456 0
-457 -458 0
-457 -459 0
-458 -459 0
457 458 459 0
-460 -461 0
-460 -462 0
-461 -462 0
460 461 462 0
-463 -464 0
-463 -465 0
-464 -465 0
463 464 465 0
-466 -467 0
-466 -468 0
-467 -468 0
466 467 468 0
-469 -470 0
-469 -471 0
-470 -471 0
469 470 471 0
-472 -473 0
-472 -474 0
-473 -474 0
472 473 474 0
-475 -476 0
-475 -477 0
-476 -477 0
475 476 477 0
-478 -479 0
-478 -480 0
-479 -480 0
478 479 480 0
-481 -482 0
-481 -483 0
-482 -483 0
481 482 483 0
-484 -485 0
-484 -486 0
-485 -486 0
484 485 486 0
-487 -488 0
-487 -489 0
-488 -489 0
487 488 489 0
-490 -491 0
-490 -492 0
-491 -492 0
490 491 492 0
-493 -494 0
-493 -495 0
-494 -495 0
493 494 495 0
-496 -497 0
-496 -498 0
-497 -498 0
496 497 498 0
-499 -500 0
-499 -501 0
-500 -501 0
499 500 501 0
-502 -503 0
-502 -504 0
-503 -504 0
502 503 504 0
-505 -506 0
-505 -507 0
-506 -507 0
505 506 507 0
-508 -509 0
-508 -510 0
-509 -510 0
508 509 510 0
-511 -512 0
-511 -513 0
-512 -513 0
511 512 513 0
-514 -515 0
-514 -516 0
-515 -516 0
514 515 516 0
-517 -518 0
-517 -519 0
-518 -519 0
517 518 519 0
-520 -521 0
-520 -522 0
-521 -522 0
520 521 522 0
-523 -524 0
-523 -525 0
-524 -525 0
523 524 525 0
-526 -527 0
-526 -528 0
-527 -528 0
526 527 528 0
-529 -530 0
-529 -531 0
-530 -531 0
529 530 531 0
-532 -533 0
-532 -534 0
-533 -534 0
532 533 534 0
-535 -536 0
-535 -537 0
-536 -537 0
535 536 537 0
-538 -539 0
-538 -540 0
-539 -540 0
538 539 540 0
-541 -542 0
-541 -543 0
-542 -543 0
541 542 543 0
-544 -545 0
-544 -546 0
-545 -546 0
544 545 546 0
-547 -548 0
-547 -549 0
-548 -549 0
547 548 549 0
-550 -551 0
-550 -552 0
-551 -552 0
550 551 552 0
-553 -554 0
-553 -555 0
-554 -555 0
553 554 555 0
-556 -557 0
-556 -558 0
-557 -558 0
556 557 558 0
-559 -560 0
-559 -561 0
-560 -561 0
559 560 561 0
-562 -563 0
-562 -564 0
-563 -564 0
562 563 564 0
-565 -566 0
-565 -567 0
-566 -567 0
565 566 567 0
-568 -569 0
-568 -570 0
-569 -570 0
568 569 570 0
-571 -572 0
-571 -573 0
-572 -573 0
571 572 573 0
-574 -575 0
-574 -576 0
-575 -576 0
574 575 576 0
-577 -578 0
-577 -579 0
-578 -579 0
577 578 579 0
-580 -581 0
-580 -582 0
-581 -582 0
580 581 582 0
-583 -584 0
-583 -585 0
-584 -585 0
583 584 585 0
-586 -587 0
-586 -588 0
-587 -588 0
586 587 588 0
-589 -590 0
-589 -591 0
-590 -591 0
589 590 591 0
-592 -593 0
-592 -594 0
-593 -594 0
592 593 594 0
-595 -596 0
-595 -597 0
-596 -597 0
595 596 597 0
-598 -599 0
-598 -600 0
-599 -600 0
598 599 600 0
-517 -1 0
-518 -2 0
-519 -3 0
-556 -1 0
-557 -2 0
-558 -3 0
-28 -4 0
-29 -5 0
-30 -6 0
-160 -4 0
-161 -5 0
-162 -6 0
-235 -4 0
-236 -5 0
-237 -6 0
-364 -4 0
-365 -5 0
-366 -6 0
-526 -4 0
-527 -5 0
-528 -6 0
-574 -4 0
-575 -5 0
-576 -6 0
-52 -7 0
-53 -8 0
-54 -9 0
-169 -7 0
-170 -8 0
-171 -9 0
-187 -7 0
-188 -8 0
-189 -9 0
-268 -7 0
-269 -8 0
-270 -9 0
-301 -7 0
-302 -8 0
-303 -9 0
-16 -10 0
-17 -11 0
-18 -12 0
-40 -10 0
-41 -11 0
-42 -12 0
-169 -10 0
-170 -11 0
-171 -12 0
-466 -10 0
-467 -11 0
-468 -12 0
-568 -10 0
-569 -11 0
-570 -12 0
-58 -13 0
-59 -14 0
-60 -15 0
-379 -13 0
-380 -14 0
-381 -15 0
-469 -13 0
-470 -14 0
-471 -15 0
-478 -13 0
-479 -14 0
-480 -15 0
-502 -13 0
-503 -14 0
-504 -15 0
-517 -13 0
-518 -14 0
-519 -15 0
-109 -16 0
-110 -17 0
-111 -18 0
-268 -16 0
-269 -17 0
-270 -18 0
-478 -16 0
-479 -17 0
-480 -18 0
-502 -16 0
-503 -17 0
-504 -18 0
-148 -19 0
-149 -20 0
-150 -21 0
-274 -19 0
-275 -20 0
-276 -21 0
-292 -19 0
-293 -20 0
-294 -21 0
-394 -19 0
-395 -20 0
-396 -21 0
-598 -19 0
-599 -20 0
-600 -21 0
-67 -22 0
-68 -23 0
-69 -24 0
-205 -22 0
-206 -23 0
-207 -24 0
-172 -25 0
-173 -26 0
-174 -27 0
-337 -25 0
-338 -26 0
-339 -27 0
-427 -25 0
-428 -26 0
-429 -27 0
-484 -25 0
-485 -26 0
-486 -27 0
-34 -28 0
-35 -29 0
-36 -30 0
-217 -28 0
-218 -29 0
-219 -30 0
-316 -28 0
-317 -29 0
-318 -30 0
-535 -28 0
-536 -29 0
-537 -30 0
-37 -31 0
-38 -32 0
-39 -33 0
-130 -31 0
-131 -32 0
-132 -33 0
-142 -31 0
-143 -32 0
-144 -33 0
-172 -31 0
-173 -32 0
-174 -33 0
-262 -31 0
-263 -32 0
-264 -33 0
-274 -31 0
-275 -32 0
-276 -33 0
-550 -31 0
-551 -32 0
-552 -33 0
-94 -34 0
-95 -35 0
-96 -36 0
-241 -34 0
-242 -35 0
-243 -36 0
-352 -34 0
-353 -35 0
-354 -36 0
-589 -34 0
-590 -35 0
-591 -36 0
-124 -37 0
-125 -38 0
-126 -39 0
-178 -37 0
-179 -38 0
-180 -39 0
-442 -37 0
-443 -38 0
-444 -39 0
-103 -40 0
-104 -41 0
-105 -42 0
-121 -40 0
-122 -41 0
-123 -42 0
-139 -40 0
-140 -41 0
-141 -42 0
-286 -40 0
-287 -41 0
-288 -42 0
-373 -40 0
-374 -41 0
-375 -42 0
-499 -40 0
-500 -41 0
-501 -42 0
-244 -43 0
-245 -44 0
-246 -45 0
-277 -43 0
-278 -44 0
-279 -45 0
-322 -43 0
-323 -44 0
-324 -45 0
-346 -43 0
-347 -44 0
-348 -45 0
-364 -43 0
-365 -44 0
-366 -45 0
-67 -46 0
-68 -47 0
-69 -48 0
-151 -46 0
-152 -47 0
-153 -48 0
-274 -46 0
-275 -47 0
-276 -48 0
-319 -46 0
-320 -47 0
-321 -48 0
-352 -46 0
-353 -47 0
-354 -48 0
-475 -46 0
-476 -47 0
-477 -48 0
-523 -46 0
-524 -47 0
-525 -48 0
-286 -49 0
-287 -50 0
-288 -51 0
-394 -49 0
-395 -50 0
-396 -51 0
-457 -49 0
-458 -50 0
-459 -51 0
-472 -49 0
-473 -50 0
-474 -51 0
-442 -52 0
-443 -53 0
-444 -54 0
-457 -52 0
-458 -53 0
-459 -54 0
-586 -52 0
-587 -53 0
-588 -54 0
-91 -55 0
-92 -56 0
-93 -57 0
-142 -55 0
-143 -56 0
-144 -57 0
-490 -55 0
-491 -56 0
-492 -57 0
-115 -58 0
-116 -59 0
-117 -60 0
-148 -58 0
-149 -59 0
-150 -60 0
-562 -58 0
-563 -59 0
-564 -60 0
-577 -58 0
-578 -59 0
-579 -60 0
-73 -61 0
-74 -62 0
-75 -63 0
-418 -61 0
-419 -62 0
-420 -63 0
-493 -61 0
-494 -62 0
-495 -63 0
-532 -61 0
-533 -62 0
-534 -63 0
-595 -61 0
-596 -62 0
-597 -63 0
-343 -64 0
-344 -65 0
-345 -66 0
-115 -67 0
-116 -68 0
-117 -69 0
-328 -67 0
-329 -68 0
-330 -69 0
-400 -67 0
-401 -68 0
-402 -69 0
-439 -67 0
-440 -68 0
-441 -69 0
-178 -70 0
-179 -71 0
-180 -72 0
-277 -70 0
-278 -71 0
-279 -72 0
-547 -70 0
-548 -71 0
-549 -72 0
-568 -70 0
-569 -71 0
-570 -72 0
-232 -73 0
-233 -74 0
-234 -75 0
-289 -73 0
-290 -74 0
-291 -75 0
-400 -73 0
-401 -74 0
-402 -75 0
-361 -76 0
-362 -77 0
-363 -78 0
-382 -76 0
-383 -77 0
-384 -78 0
-418 -76 0
-419 -77 0
-420 -78 0
-421 -76 0
-422 -77 0
-423 -78 0
-520 -76 0
-521 -77 0
-522 -78 0
-115 -79 0
-116 -80 0
-117 -81 0
-256 -79 0
-257 -80 0
-258 -81 0
-277 -79 0
-278 -80 0
-279 -81 0
-538 -79 0
-539 -80 0
-540 -81 0
-577 -79 0
-578 -80 0
-579 -81 0
-145 -82 0
-146 -83 0
-147 -84 0
-151 -82 0
-152 -83 0
-153 -84 0
-220 -82 0
-221 -83 0
-222 -84 0
-241 -82 0
-242 -83 0
-243 -84 0
-247 -82 0
-248 -83 0
-249 -84 0
-502 -82 0
-503 -83 0
-504 -84 0
-109 -85 0
-110 -86 0
-111 -87 0
-250 -85 0
-251 -86 0
-252 -87 0
-265 -85 0
-266 -86 0
-267 -87 0
-367 -85 0
-368 -86 0
-369 -87 0
-382 -85 0
-383 -86 0
-384 -87 0
-517 -85 0
-518 -86 0
-519 -87 0
-577 -85 0
-578 -86 0
-579 -87 0
-316 -88 0
-317 -89 0
-318 -90 0
-370 -88 0
-371 -89 0
-372 -90 0
-397 -88 0
-398 -89 0
-399 -90 0
-406 -88 0
-407 -89 0
-408 -90 0
-505 -88 0
-506 -89 0
-507 -90 0
-178 -91 0
-179 -92 0
-180 -93 0
-202 -91 0
-203 -92 0
-204 -93 0
-283 -91 0
-284 -92 0
-285 -93 0
-469 -91 0
-470 -92 0
-471 -93 0
-196 -94 0
-197 -95 0
-198 -96 0
-289 -94 0
-290 -95 0
-291 -96 0
-406 -94 0
-407 -95 0
-408 -96 0
-448 -94 0
-449 -95 0
-450 -96 0
-103 -97 0
-104 -98 0
-105 -99 0
-169 -97 0
-170 -98 0
-171 -99 0
-175 -97 0
-176 -98 0
-177 -99 0
-223 -97 0
-224 -98 0
-225 -99 0
-574 -97 0
-575 -98 0
-576 -99 0
-229 -100 0
-230 -101 0
-231 -102 0
-577 -100 0
-578 -101 0
-579 -102 0
-124 -103 0
-125 -104 0
-126 -105 0
-154 -103 0
-155 -104 0
-156 -105 0
-184 -103 0
-185 -104 0
-186 -105 0
-286 -103 0
-287 -104 0
-288 -105 0
-394 -103 0
-395 -104 0
-396 -105 0
-496 -103 0
-497 -104 0
-498 -105 0
-118 -106 0
-119 -107 0
-120 -108 0
-202 -106 0
-203 -107 0
-204 -108 0
-361 -106 0
-362 -107 0
-363 -108 0
-397 -106 0
-398 -107 0
-399 -108 0
-538 -106 0
-539 -107 0
-540 -108 0
-208 -109 0
-209 -110 0
-210 -111 0
-235 -109 0
-236 -110 0
-237 -111 0
-298 -109 0
-299 -110 0
-300 -111 0
-370 -109 0
-371 -110 0
-372 -111 0
-115 -112 0
-116 -113 0
-117 -114 0
-157 -112 0
-158 -113 0
-159 -114 0
-196 -112 0
-197 -113 0
-198 -114 0
-499 -112 0
-500 -113 0
-501 -114 0
-208 -115 0
-209 -116 0
-210 -117 0
-559 -115 0
-560 -116 0
-561 -117 0
-169 -118 0
-170 -119 0
-171 -120 0
-289 -118 0
-290 -119 0
-291 -120 0
-307 -118 0
-308 -119 0
-309 -120 0
-328 -118 0
-329 -119 0
-330 -120 0
-385 -118 0
-386 -119 0
-387 -120 0
-502 -118 0
-503 -119 0
-504 -120 0
-133 -121 0
-134 -122 0
-135 -123 0
-265 -121 0
-266 -122 0
-267 -123 0
-412 -121 0
-413 -122 0
-414 -123 0
-466 -121 0
-467 -122 0
-468 -123 0
-595 -121 0
-596 -122 0
-597 -123 0
-238 -124 0
-239 -125 0
-240 -126 0
-262 -124 0
-263 -125 0
-264 -126 0
-268 -124 0
-269 -125 0
-270 -126 0
-511 -124 0
-512 -125 0
-513 -126 0
-190 -127 0
-191 -128 0
-192 -129 0
-298 -127 0
-299 -128 0
-300 -129 0
-409 -127 0
-410 -128 0
-411 -129 0
-466 -127 0
-467 -128 0
-468 -129 0
-496 -127 0
-497 -128 0
-498 -129 0
-538 -127 0
-539 -128 0
-540 -129 0
-163 -130 0
-164 -131 0
-165 -132 0
-403 -130 0
-404 -131 0
-405 -132 0
-535 -130 0
-536 -131 0
-537 -132 0
-217 -136 0
-218 -137 0
-219 -138 0
-232 -136 0
-233 -137 0
-234 -138 0
-241 -136 0
-242 -137 0
-243 -138 0
-436 -136 0
-437 -137 0
-438 -138 0
-493 -136 0
-494 -137 0
-495 -138 0
-562 -136 0
-563 -137 0
-564 -138 0
-238 -139 0
-239 -140 0
-240 -141 0
-406 -139 0
-407 -140 0
-408 -141 0
-556 -139 0
-557 -140 0
-558 -141 0
-382 -142 0
-383 -143 0
-384 -144 0
-508 -142 0
-509 -143 0
-510 -144 0
-556 -142 0
-557 -143 0
-558 -144 0
-298 -145 0
-299 -146 0
-300 -147 0
-439 -145 0
-440 -146 0
-441 -147 0
-469 -145 0
-470 -146 0
-471 -147 0
-562 -145 0
-563 -146 0
-564 -147 0
-163 -148 0
-164 -149 0
-165 -150 0
-166 -151 0
-167 -152 0
-168 -153 0
-277 -151 0
-278 -152 0
-279 -153 0
-412 -151 0
-413 -152 0
-414 -153 0
-463 -151 0
-464 -152 0
-465 -153 0
-568 -151 0
-569 -152 0
-570 -153 0
-295 -154 0
-296 -155 0
-297 -156 0
-313 -154 0
-314 -155 0
-315 -156 0
-412 -154 0
-413 -155 0
-414 -156 0
-451 -154 0
-452 -155 0
-453 -156 0
-550 -154 0
-551 -155 0
-552 -156 0
-565 -154 0
-566 -155 0
-567 -156 0
-190 -157 0
-191 -158 0
-192 -159 0
-226 -157 0
-227 -158 0
-228 -159 0
-376 -157 0
-377 -158 0
-378 -159 0
-487 -160 0
-488 -161 0
-489 -162 0
-490 -160 0
-491 -161 0
-492 -162 0
-214 -163 0
-215 -164 0
-216 -165 0
-235 -163 0
-236 -164 0
-237 -165 0
-481 -163 0
-482 -164 0
-483 -165 0
-586 -166 0
-587 -167 0
-588 -168 0
-379 -169 0
-380 -170 0
-381 -171 0
-481 -169 0
-482 -170 0
-483 -171 0
-268 -172 0
-269 -173 0
-270 -174 0
-355 -172 0
-356 -173 0
-357 -174 0
-427 -172 0
-428 -173 0
-429 -174 0
-451 -172 0
-452 -173 0
-453 -174 0
-478 -172 0
-479 -173 0
-480 -174 0
-199 -175 0
-200 -176 0
-201 -177 0
-259 -175 0
-260 -176 0
-261 -177 0
-316 -175 0
-317 -176 0
-318 -177 0
-352 -175 0
-353 -176 0
-354 -177 0
-205 -178 0
-206 -179 0
-207 -180 0
-328 -178 0
-329 -179 0
-330 -180 0
-379 -178 0
-380 -179 0
-381 -180 0
-397 -178 0
-398 -179 0
-399 -180 0
-283 -181 0
-284 -182 0
-285 -183 0
-307 -181 0
-308 -182 0
-309 -183 0
-337 -181 0
-338 -182 0
-339 -183 0
-421 -181 0
-422 -182 0
-423 -183 0
-268 -184 0
-269 -185 0
-270 -186 0
-310 -184 0
-311 -185 0
-312 -186 0
-316 -184 0
-317 -185 0
-318 -186 0
-445 -184 0
-446 -185 0
-447 -186 0
-535 -184 0
-536 -185 0
-537 -186 0
-583 -184 0
-584 -185 0
-585 -186 0
-229 -187 0
-230 -188 0
-231 -189 0
-454 -187 0
-455 -188 0
-456 -189 0
-559 -187 0
-560 -188 0
-561 -189 0
-574 -187 0
-575 -188 0
-576 -189 0
-253 -190 0
-254 -191 0
-255 -192 0
-331 -190 0
-332 -191 0
-333 -192 0
-223 -193 0
-224 -194 0
-225 -195 0
-247 -193 0
-248 -194 0
-249 -195 0
-379 -193 0
-380 -194 0
-381 -195 0
-424 -193 0
-425 -194 0
-426 -195 0
-262 -196 0
-263 -197 0
-264 -198 0
-280 -196 0
-281 -197 0
-282 -198 0
-421 -196 0
-422 -197 0
-423 -198 0
-493 -196 0
-494 -197 0
-495 -198 0
-505 -196 0
-506 -197 0
-507 -198 0
-217 -199 0
-218 -200 0
-219 -201 0
-298 -199 0
-299 -200 0
-300 -201 0
-256 -202 0
-257 -203 0
-258 -204 0
-463 -202 0
-464 -203 0
-465 -204 0
-529 -202 0
-530 -203 0
-531 -204 0
-424 -205 0
-425 -206 0
-426 -207 0
-490 -205 0
-491 -206 0
-492 -207 0
-562 -205 0
-563 -206 0
-564 -207 0
-214 -208 0
-215 -209 0
-216 -210 0
-217 -208 0
-218 -209 0
-219 -210 0
-268 -208 0
-269 -209 0
-270 -210 0
-406 -208 0
-407 -209 0
-408 -210 0
-595 -208 0
-596 -209 0
-597 -210 0
-370 -211 0
-371 -212 0
-372 -213 0
-412 -211 0
-413 -212 0
-414 -213 0
-451 -211 0
-452 -212 0
-453 -213 0
-520 -211 0
-521 -212 0
-522 -213 0
-580 -211 0
-581 -212 0
-582 -213 0
-307 -214 0
-308 -215 0
-309 -216 0
-364 -214 0
-365 -215 0
-366 -216 0
-379 -214 0
-380 -215 0
-381 -216 0
-454 -214 0
-455 -215 0
-456 -216 0
-520 -214 0
-521 -215 0
-522 -216 0
-592 -214 0
-593 -215 0
-594 -216 0
-421 -217 0
-422 -218 0
-423 -219 0
-517 -217 0
-518 -218 0
-519 -219 0
-544 -217 0
-545 -218 0
-546 -219 0
-598 -217 0
-599 -218 0
-600 -219 0
-325 -220 0
-326 -221 0
-327 -222 0
-283 -223 0
-284 -224 0
-285 -225 0
-439 -223 0
-440 -224 0
-441 -225 0
-469 -223 0
-470 -224 0
-471 -225 0
-493 -223 0
-494 -224 0
-495 -225 0
-511 -226 0
-512 -227 0
-513 -228 0
-352 -229 0
-353 -230 0
-354 -231 0
-379 -229 0
-380 -230 0
-381 -231 0
-445 -229 0
-446 -230 0
-447 -231 0
-529 -229 0
-530 -230 0
-531 -231 0
-394 -232 0
-395 -233 0
-396 -234 0
-469 -232 0
-470 -233 0
-471 -234 0
-487 -232 0
-488 -233 0
-489 -234 0
-277 -235 0
-278 -236 0
-279 -237 0
-328 -235 0
-329 -236 0
-330 -237 0
-520 -235 0
-521 -236 0
-522 -237 0
-523 -235 0
-524 -236 0
-525 -237 0
-574 -235 0
-575 -236 0
-576 -237 0
-490 -238 0
-491 -239 0
-492 -240 0
-421 -241 0
-422 -242 0
-423 -243 0
-448 -241 0
-449 -242 0
-450 -243 0
-493 -241 0
-494 -242 0
-495 -243 0
-499 -241 0
-500 -242 0
-501 -243 0
-532 -241 0
-533 -242 0
-534 -243 0
-310 -244 0
-311 -245 0
-312 -246 0
-331 -244 0
-332 -245 0
-333 -246 0
-361 -244 0
-362 -245 0
-363 -246 0
-508 -244 0
-509 -245 0
-510 -246 0
-367 -247 0
-368 -248 0
-369 -249 0
-289 -250 0
-290 -251 0
-291 -252 0
-310 -250 0
-311 -251 0
-312 -252 0
-349 -250 0
-350 -251 0
-351 -252 0
-391 -250 0
-392 -251 0
-393 -252 0
-418 -250 0
-419 -251 0
-420 -252 0
-280 -253 0
-281 -254 0
-282 -255 0
-460 -253 0
-461 -254 0
-462 -255 0
-268 -256 0
-269 -257 0
-270 -258 0
-295 -256 0
-296 -257 0
-297 -258 0
-508 -256 0
-509 -257 0
-510 -258 0
-313 -262 0
-314 -263 0
-315 -264 0
-403 -262 0
-404 -263 0
-405 -264 0
-439 -265 0
-440 -266 0
-441 -267 0
-475 -268 0
-476 -269 0
-477 -270 0
-427 -271 0
-428 -272 0
-429 -273 0
-421 -274 0
-422 -275 0
-423 -276 0
-547 -274 0
-548 -275 0
-549 -276 0
-484 -277 0
-485 -278 0
-486 -279 0
-319 -280 0
-320 -281 0
-321 -282 0
-406 -280 0
-407 -281 0
-408 -282 0
-430 -283 0
-431 -284 0
-432 -285 0
-340 -286 0
-341 -287 0
-342 -288 0
-529 -286 0
-530 -287 0
-531 -288 0
-538 -286 0
-539 -287 0
-540 -288 0
-301 -289 0
-302 -290 0
-303 -291 0
-340 -289 0
-341 -290 0
-342 -291 0
-364 -289 0
-365 -290 0
-366 -291 0
-487 -289 0
-488 -290 0
-489 -291 0
-436 -292 0
-437 -293 0
-438 -294 0
-442 -295 0
-443 -296 0
-444 -297 0
-505 -295 0
-506 -296 0
-507 -297 0
-538 -295 0
-539 -296 0
-540 -297 0
-331 -298 0
-332 -299 0
-333 -300 0
-544 -298 0
-545 -299 0
-546 -300 0
-421 -301 0
-422 -302 0
-423 -303 0
-307 -304 0
-308 -305 0
-309 -306 0
-493 -304 0
-494 -305 0
-495 -306 0
-592 -304 0
-593 -305 0
-594 -306 0
-520 -307 0
-521 -308 0
-522 -309 0
-418 -310 0
-419 -311 0
-420 -312 0
-457 -310 0
-458 -311 0
-459 -312 0
-556 -310 0
-557 -311 0
-558 -312 0
-580 -310 0
-581 -311 0
-582 -312 0
-355 -313 0
-356 -314 0
-357 -315 0
-385 -319 0
-386 -320 0
-387 -321 0
-478 -319 0
-479 -320 0
-480 -321 0
-499 -319 0
-500 -320 0
-501 -321 0
-370 -322 0
-371 -323 0
-372 -324 0
-472 -322 0
-473 -323 0
-474 -324 0
-499 -325 0
-500 -326 0
-501 -327 0
-586 -325 0
-587 -326 0
-588 -327 0
-361 -328 0
-362 -329 0
-363 -330 0
-508 -328 0
-509 -329 0
-510 -330 0
-529 -328 0
-530 -329 0
-531 -330 0
-463 -331 0
-464 -332 0
-465 -333 0
-445 -334 0
-446 -335 0
-447 -336 0
-517 -334 0
-518 -335 0
-519 -336 0
-547 -334 0
-548 -335 0
-549 -336 0
-562 -337 0
-563 -338 0
-564 -339 0
-427 -340 0
-428 -341 0
-429 -342 0
-415 -343 0
-416 -344 0
-417 -345 0
-523 -343 0
-524 -344 0
-525 -345 0
-595 -343 0
-596 -344 0
-597 -345 0
-550 -349 0
-551 -350 0
-552 -351 0
-355 -352 0
-356 -353 0
-357 -354 0
-382 -352 0
-383 -353 0
-384 -354 0
-391 -352 0
-392 -353 0
-393 -354 0
-442 -355 0
-443 -356 0
-444 -357 0
-472 -355 0
-473 -356 0
-474 -357 0
-544 -355 0
-545 -356 0
-546 -357 0
-568 -355 0
-569 -356 0
-570 -357 0
-577 -355 0
-578 -356 0
-579 -357 0
-463 -358 0
-464 -359 0
-465 -360 0
-466 -358 0
-467 -359 0
-468 -360 0
-418 -361 0
-419 -362 0
-420 -363 0
-544 -364 0
-545 -365 0
-546 -366 0
-442 -367 0
-443 -368 0
-444 -369 0
-460 -367 0
-461 -368 0
-462 -369 0
-583 -367 0
-584 -368 0
-585 -369 0
-445 -370 0
-446 -371 0
-447 -372 0
-595 -370 0
-596 -371 0
-597 -372 0
-457 -373 0
-458 -374 0
-459 -375 0
-448 -376 0
-449 -377 0
-450 -378 0
-436 -379 0
-437 -380 0
-438 -381 0
-475 -379 0
-476 -380 0
-477 -381 0
-418 -385 0
-419 -386 0
-420 -387 0
-478 -385 0
-479 -386 0
-480 -387 0
-559 -385 0
-560 -386 0
-561 -387 0
-514 -394 0
-515 -395 0
-516 -396 0
-415 -397 0
-416 -398 0
-417 -399 0
-592 -400 0
-593 -401 0
-594 -402 0
-511 -403 0
-512 -404 0
-513 -405 0
-451 -406 0
-452 -407 0
-453 -408 0
-559 -406 0
-560 -407 0
-561 -408 0
-598 -406 0
-599 -407 0
-600 -408 0
-499 -409 0
-500 -410 0
-501 -411 0
-571 -409 0
-572 -410 0
-573 -411 0
-592 -409 0
-593 -410 0
-594 -411 0
-448 -412 0
-449 -413 0
-450 -414 0
-535 -415 0
-536 -416 0
-537 -417 0
-568 -415 0
-569 -416 0
-570 -417 0
-598 -415 0
-599 -416 0
-600 -417 0
-568 -418 0
-569 -419 0
-570 -420 0
-574 -418 0
-575 -419 0
-576 -420 0
-481 -421 0
-482 -422 0
-483 -423 0
-475 -424 0
-476 -425 0
-477 -426 0
-547 -424 0
-548 -425 0
-549 -426 0
-529 -427 0
-530 -428 0
-531 -429 0
-580 -427 0
-581 -428 0
-582 -429 0
-556 -430 0
-557 -431 0
-558 -432 0
-454 -433 0
-455 -434 0
-456 -435 0
-529 -433 0
-530 -434 0
-531 -435 0
-538 -433 0
-539 -434 0
-540 -435 0
-442 -436 0
-443 -437 0
-444 -438 0
-475 -436 0
-476 -437 0
-477 -438 0
-541 -436 0
-542 -437 0
-543 -438 0
-472 -439 0
-473 -440 0
-474 -441 0
-559 -439 0
-560 -440 0
-561 -441 0
-505 -442 0
-506 -443 0
-507 -444 0
-532 -445 0
-533 -446 0
-534 -447 0
-475 -448 0
-476 -449 0
-477 -450 0
-499 -448 0
-500 -449 0
-501 -450 0
-529 -448 0
-530 -449 0
-531 -450 0
-565 -451 0
-566 -452 0
-567 -453 0
-466 -454 0
-467 -455 0
-468 -456 0
-535 -457 0
-536 -458 0
-537 -459 0
-535 -460 0
-536 -461 0
-537 -462 0
-472 -463 0
-473 -464 0
-474 -465 0
-583 -463 0
-584 -464 0
-585 -465 0
-517 -466 0
-518 -467 0
-519 -468 0
-481 -469 0
-482 -470 0
-483 -471 0
-511 -469 0
-512 -470 0
-513 -471 0
-577 -469 0
-578 -470 0
-579 -471 0
-481 -475 0
-482 -476 0
-483 -477 0
-562 -478 0
-563 -479 0
-564 -480 0
-586 -478 0
-587 -479 0
-588 -480 0
-571 -481 0
-572 -482 0
-573 -483 0
-598 -484 0
-599 -485 0
-600 -486 0
-511 -487 0
-512 -488 0
-513 -489 0
-508 -496 0
-509 -497 0
-510 -498 0
-520 -517 0
-521 -518 0
-522 -519 0
-547 -517 0
-548 -518 0
-549 -519 0
-538 -523 0
-539 -524 0
-540 -525 0
-559 -535 0
-560 -536 0
-561 -537 0
-583 -538 0
-584 -539 0
-585 -540 0
-574 -541 0
-575 -542 0
-576 -543 0
-589 -541 0
-590 -542 0
-591 -543 0
-595 -556 0
-596 -557 0
-597 -558 0
-577 -565 0
-578 -566 0
-579 -567 0
-598 -571 0
-599 -572 0
-600 -573 0
-598 -595 0
-599 -596 0
-600 -597 0
